674
1   1   0    59   0 44 45 33 15 0
1   2   0    36   0 41 19 0
1   3   0    71   0 25 13 40 42 0
1   4   0    71   0 4 18 14 0
2   1   0    78   0 6 23 24 43 7 26 0
2   2   0    0    0 0
2   3   0    54   0 47 12 0
2   4   0    0    0 0
3   1   0    67   0 9 30 39 10 49 0
3   2   0    0    0 0
3   3   0    0    0 0
3   4   0    70   0 38 11 50 34 0
4   1   0    80   0 28 31 8 48 27 0
4   2   0    67   0 35 36 3 20 0
4   3   0    44   0 21 2 29 0
4   4   0    80   0 22 1 32 46 17 37 5 16 0